NAME        dominating_set
ROWS
 N  obj     
 G  c0      
 G  c1      
 G  c2      
 G  c3      
 G  c4      
 G  c5      
 G  c6      
 G  c7      
 G  c8      
COLUMNS
    MARK0000  'MARKER'                 'INTORG'
    x0        obj       1
    x0        c0        1
    x0        c1        1
    x0        c2        1
    x0        c3        1
    x0        c6        1
    x1        obj       1
    x1        c0        1
    x1        c1        1
    x1        c2        1
    x1        c4        1
    x1        c7        1
    x2        obj       1
    x2        c0        1
    x2        c1        1
    x2        c2        1
    x2        c5        1
    x2        c8        1
    x3        obj       1
    x3        c0        1
    x3        c3        1
    x3        c4        1
    x3        c5        1
    x3        c6        1
    x4        obj       1
    x4        c1        1
    x4        c3        1
    x4        c4        1
    x4        c5        1
    x4        c7        1
    x5        obj       1
    x5        c2        1
    x5        c3        1
    x5        c4        1
    x5        c5        1
    x5        c8        1
    x6        obj       1
    x6        c0        1
    x6        c3        1
    x6        c6        1
    x6        c7        1
    x6        c8        1
    x7        obj       1
    x7        c1        1
    x7        c4        1
    x7        c6        1
    x7        c7        1
    x7        c8        1
    x8        obj       1
    x8        c2        1
    x8        c5        1
    x8        c6        1
    x8        c7        1
    x8        c8        1
    MARK0001  'MARKER'                 'INTEND'
RHS
    RHS_V     c0        1
    RHS_V     c1        1
    RHS_V     c2        1
    RHS_V     c3        1
    RHS_V     c4        1
    RHS_V     c5        1
    RHS_V     c6        1
    RHS_V     c7        1
    RHS_V     c8        1
BOUNDS
 BV BOUND     x0      
 BV BOUND     x1      
 BV BOUND     x2      
 BV BOUND     x3      
 BV BOUND     x4      
 BV BOUND     x5      
 BV BOUND     x6      
 BV BOUND     x7      
 BV BOUND     x8      
ENDATA
